Route #1: 58 12 5
Route #2: 35 46 31
Route #3: 76 55 16 69
Route #4: 83 51 81
Route #5: 93 75
Route #6: 23 61 100
Route #7: 4 13 74
Route #8: 50 91 52
Route #9: 20 41 22 15
Route #10: 38 47 26 48 96 64 34
Route #11: 28 42 78 65 25
Route #12: 59 60 82
Route #13: 7 2 45 43 29 36 72 57
Route #14: 27 97 19
Route #15: 21 56 94 80
Route #16: 44 67 88 40
Route #17: 89 98 99 62 71
Route #18: 17 8
Route #19: 39 10 18
Route #20: 86 9 92
Route #21: 30 85 11 79
Route #22: 54 70 1
Route #23: 14 49 6 37 87
Route #24: 3 77 63
Route #25: 68 90 84 66
Route #26: 32 33 53 73 95 24
Cost 27591.0000
Time 16.0004